p edge 33
e 0 1
e 0 12
e 1 9
e 1 10
e 1 12
e 1 16
e 2 7
e 2 8
e 2 24
e 3 4
e 3 5
e 3 10
e 3 14
e 3 16
e 3 17
e 3 29
e 4 5
e 4 12
e 4 16
e 4 20
e 5 11
e 5 13
e 5 15
e 5 20
e 5 29
e 6 14
e 6 22
e 6 26
e 6 28
e 7 24
e 7 25
e 8 11
e 8 21
e 8 24
e 8 30
e 8 31
e 9 10
e 9 32
e 10 16
e 10 17
e 10 32
e 11 13
e 11 20
e 11 24
e 11 30
e 11 31
e 12 16
e 12 19
e 12 20
e 12 27
e 13 15
e 13 24
e 13 25
e 14 17
e 14 18
e 14 22
e 14 26
e 14 29
e 15 25
e 15 29
e 17 26
e 17 32
e 18 22
e 18 25
e 18 29
e 19 23
e 19 27
e 20 27
e 20 31
e 21 23
e 21 31
e 22 28
e 23 27
e 23 31
e 24 25
e 24 30
e 25 29
e 27 31
c k 3
